headline_hunt/bets/cascade_aux_encoding/comparisons/cadical_50k_2026-04-25/bit10_aux_expose_sr61_n32_bit10_m3304caa0_fill80000000.log
c --- [ banner ] -------------------------------------------------------------
c 
c CaDiCaL SAT Solver
c Copyright (c) 2016-2025
c A. Biere, M. Fleury, N. Froleyks, K. Fazekas, F. Pollitt, T. Faller
c JKU Linz, University of Freiburg, TU Wien
c 
c Version 3.0.0
c Apple clang version 17.0.0 (clang-1700.6.3.2) -Wall -Wextra -O3 -DNDEBUG -DNCLOSEFROM
c Tue Dec 23 21:53:38 UTC 2025 Darwin Tahoe-arm64.local 25.2.0 arm64
c 
c --- [ limit ] --------------------------------------------------------------
c 
c setting conflict limit to 50000 conflicts (due to '50000')
c 
c --- [ parsing input ] ------------------------------------------------------
c 
c reading DIMACS file from 'headline_hunt/bets/cascade_aux_encoding/cnfs/aux_expose_sr61_n32_bit10_m3304caa0_fill80000000.cnf'
c opening file to read 'headline_hunt/bets/cascade_aux_encoding/cnfs/aux_expose_sr61_n32_bit10_m3304caa0_fill80000000.cnf'
c found 'p cnf 12816 53698' header
c parsed 53698 clauses in 0.01 seconds process time
c 
c --- [ options ] ------------------------------------------------------------
c 
c   --seed=5                       (different from default '0')
c 
c --- [ solving ] ------------------------------------------------------------
c 
c time measured in process time since initialization
c 
c  seconds  reduction conflicts       size tier2       variables
c         MB    restarts   redundant    glue  trail         remaining
c          level     rate       size/glu tier1  irredundant
c 
c *  0.01  0  0 0   0  0    0    0 0.0 0 0 2 6  0% 53633 12815 100%
c (  0.01  0  0 0   0  0    0    0 0.0 0 0 2 6  0% 53633 12815 100%
c .  0.01  0  0 0   0  0    0    0 0.0 0 0 2 6  0% 53633 12815 100%
c c  0.03  0  0 0   0  0    0    0 0.0 0 0 2 6  0% 51122 12175 95%
c d  0.03  0  0 0   0  0    0    0 0.0 0 0 2 6  0% 46418 10847 85%
c 2  0.03  0  0 0   0  0    0    0 0.0 0 0 2 6  0% 46364 10847 85%
c f  0.05  0  0 0   0  0    0    0 0.0 0 0 2 6  0% 46298 10913 85%
c e  0.06  0  0 0   0  0    0    0 0.0 0 0 2 6  0% 43225 7604 59%
c s  0.06  0  0 0   0  0    0    0 0.0 0 0 2 6  0% 43217 7604 59%
c s  0.06  0  0 0   0  0    0    0 0.0 0 0 2 6  0% 43208 7604 59%
c P  0.07  0  0 0   0  0    0    0 0.0 0 0 2 6  0% 43208 7604 59%
c )  0.07  0  0 0   0  0    0    0 0.0 0 0 2 6  0% 43208 7604 59%
c {  0.07  0  0 0   0  0    0    0 0.0 0 0 2 6  0% 43208 7604 59%
c -  0.08  0 966 1  36 63  301  223 1.4 5 3 2 6 17% 43208 7604 59%
c -  0.08  0 487 2  75 39  734  563 1.5 5 3 2 6 14% 43208 7604 59%
c }  0.08  0 378 2 110 33 1002  781 1.5 5 4 2 6 12% 43208 7604 59%
c [  0.08  0  0 2 110  0 1002  781 0.0 0 0 2 6  0% 43208 7604 59%
c O  0.08  0 513 2 110 514 1003  782 1.9 175 91 2 6 47% 43208 7604 59%
c ]  0.09  0 506 2 110 19 1030  809 2.0 179 88 2 6 44% 43208 7604 59%
c {  0.09  0 378 2 110 33 1030  809 1.5 5 4 2 6 12% 43208 7604 59%
c 
c  seconds   reduction conflicts       size tier2      variables
c         MB     restarts   redundant    glue  trail        remaining
c           level     rate       size/glu tier1  irredundant
c 
c -  0.10  0 306 3 168 28 1411  984 1.5 6 4 2 6 11% 43208 7604 59%
c 2  0.11  0 232 3 229 23 2238 1653 1.5 6 4 2 6 11% 43146 7604 59%
c d  0.11  0 232 3 229 23 2238 1601 1.5 6 4 2 6 11% 43066 7538 59%
c p  0.11  0 232 3 229 23 2238 1602 1.5 6 4 2 6 11% 43066 7538 59%
c c  0.12  0 232 3 229 23 2238 1602 1.5 6 4 2 6 11% 42999 7538 59%
c d  0.12  0 232 3 229 23 2238 1544 1.5 6 4 2 6 11% 42967 7522 59%
c 2  0.12  0 232 3 229 23 2238 1541 1.5 6 4 2 6 11% 42959 7522 59%
c t  0.12  0 232 3 229 23 2238 1541 1.5 6 4 2 6 11% 42958 7522 59%
c -  0.13  0 224 4 238 22 2352 1395 1.6 6 4 2 6  9% 42958 7522 59%
c O  0.13  0 199 4 288 20 3004 1878 1.6 6 4 2 6  8% 42958 7522 59%
c -  0.14  0 181 5 366 20 3565 2095 1.6 6 4 2 6  7% 42958 7522 59%
c s  0.14  0 164 5 441 19 4132 2497 1.6 6 4 2 6  6% 42947 7522 59%
c t  0.15  0 164 5 441 19 4132 2496 1.6 6 4 2 6  6% 42944 7522 59%
c e  0.16  0 164 5 441 19 4132 2434 1.6 6 4 2 6  6% 42793 7048 55%
c ^  0.17  0 164 5 441 19 4132 2434 1.6 6 4 2 6  6% 42793 7048 55%
c d  0.17  0 155 5 519 19 4738 2486 1.6 6 4 2 6  7% 42745 7000 55%
c c  0.18  0 155 5 519 19 4738 2486 1.6 6 4 2 6  7% 42632 7000 55%
c d  0.19  0 155 5 519 19 4738 2315 1.6 6 4 2 6  7% 42594 6981 54%
c 2  0.19  0 155 5 519 19 4738 2314 1.6 6 4 2 6  7% 42588 6981 54%
c =  0.19  0 155 5 519 19 4738 2249 1.6 6 4 2 6  7% 42540 6936 54%
c 
c  seconds   reduction conflicts       size tier2      variables
c         MB     restarts   redundant    glue  trail        remaining
c           level     rate       size/glu tier1  irredundant
c 
c -  0.20  0 150 6 560 18 5058 1814 1.6 6 4 2 3  6% 42540 6936 54%
c }  0.20  0 148 6 567 18 5205 1917 1.6 6 4 2 3  6% 42540 6936 54%
c [  0.20  0 506 6 567 19 5205 1917 2.0 179 88 2 6 74% 42540 6936 54%
c ]  0.23  0 124 6 567  2 5636 2322 1.9 101 53 1 2 26% 42540 6936 54%
c {  0.23  0 148 6 567 18 5636 2322 1.6 6 4 2 3  6% 42540 6936 54%
c #  0.24  0 143 6 620 18 6005 2567 1.6 6 4 2 3  6% 42540 6936 54%
c -  0.24  0 133 7 706 17 6836 2457 1.6 6 4 2 3  6% 42540 6936 54%
c d  0.25  0 129 7 768 17 7341 2404 1.6 6 4 2 3  6% 42532 6869 54%
c c  0.26  0 129 7 768 17 7341 2404 1.6 6 4 2 3  6% 42280 6869 54%
c d  0.26  0 129 7 768 17 7341 2262 1.6 6 4 2 3  6% 42212 6835 53%
c 2  0.27  0 129 7 768 17 7341 2259 1.6 6 4 2 3  6% 42202 6835 53%
c =  0.27  0 129 7 768 17 7341 2259 1.6 6 4 2 3  6% 42201 6833 53%
c -  0.28  0 117 8 884 16 8903 2577 1.6 6 4 2 3  5% 42201 6833 53%
c B  0.29  0 111 8 984 15 10008 3317 1.6 6 4 1 2  5% 42201 6833 53%
c d  0.29  0 111 8 984 15 10041 2910 1.6 6 4 1 2  5% 42201 6764 53%
c c  0.30  0 111 8 984 15 10041 2910 1.6 6 4 1 2  5% 41990 6764 53%
c d  0.31  0 111 8 984 15 10041 2779 1.6 6 4 1 2  5% 41932 6735 53%
c 2  0.31  0 111 8 984 15 10041 2779 1.6 6 4 1 2  5% 41918 6735 53%
c f  0.31  0 111 8 984 15 10041 2779 1.6 6 4 1 2  5% 41916 6736 53%
c -  0.32  0 107 9 1124 15 11263 2200 1.6 6 4 1 2  5% 41916 6736 53%
c 
c  seconds   reductions  conflicts       size tier2      variables
c         MB     restarts     redundant    glue  trail        remaining
c           level      rate        size/glu tier1  irredundant
c 
c d  0.34  0 105 9 1394 16 12826 2905 1.6 7 4 1 2  6% 41916 6665 52%
c c  0.35  0 105 9 1394 16 12826 2905 1.6 7 4 1 2  6% 41607 6665 52%
c d  0.35  0 105 9 1394 16 12826 2763 1.6 7 4 1 2  6% 41537 6630 52%
c 2  0.35  0 105 9 1394 16 12826 2763 1.6 7 4 1 2  6% 41527 6630 52%
c }  0.37  0 104 9 1424 16 12951 2871 1.7 7 4 1 2  6% 41527 6630 52%
c [  0.37  0 124 9 1424  2 12951 2871 1.9 101 53 1 2 29% 41527 6630 52%
c ]  0.45  0 110 9 1424  2 13290 3177 2.4 117 49 1 2 39% 41527 6630 52%
c {  0.45  0 104 9 1424 16 13290 3177 1.7 7 4 1 2  6% 41527 6630 52%
c }  0.56  0 103 9 1585 16 13907 3750 2.1 14 7 1 2 11% 41527 6630 52%
c [  0.56  0 110 9 1585  2 13907 3750 2.4 117 49 1 2 39% 41527 6630 52%
c -  0.57  0 110 10 1585  2 13917 2460 2.4 116 48 1 2 39% 41527 6630 52%
c ]  0.71  0 106 10 1586  2 14435 2954 2.5 138 55 1 2 47% 41527 6630 52%
c {  0.71  0 103 10 1586 16 14435 2954 2.1 14 7 1 2 11% 41527 6630 52%
c s  0.75  0 103 10 1614 15 14542 2744 2.2 16 7 1 2 12% 40154 6630 52%
c t  0.75  0 103 10 1614 15 14542 2744 2.2 16 7 1 2 12% 40152 6630 52%
c e  0.77  0 103 10 1614 15 14542 2111 2.2 16 7 1 2 12% 40090 6438 50%
c s  0.77  0 103 10 1614 15 14542 2006 2.2 16 7 1 2 12% 39982 6438 50%
c e  0.77  0 103 10 1614 15 14542 2004 2.2 16 7 1 2 12% 39909 6430 50%
c W  0.90  0 103 10 1732 15 15010 2442 2.3 23 10 1 2 16% 39909 6430 50%
c }  0.94  0 103 10 1754 15 15097 2529 2.4 24 10 1 2 17% 39909 6430 50%
c 
c  seconds   reductions   conflicts        size   tier2      variables
c         MB      restarts     redundant      glue   trail        remaining
c           level       rate        size/glue   tier1  irredundant
c 
c [  0.94  0 106 10 1754  2 15097 2529 2.5 138 55 1 2 47% 39909 6430 50%
c ]  1.16  0 104 10 1754  2 15626 3044 2.7 164 60 1 2 57% 39909 6430 50%
c {  1.16  0 103 10 1754 15 15626 3044 2.4 24 10 1 2 17% 39909 6430 50%
c 2  1.18  0 103 10 1771 15 15692 3099 2.4 26 11 1 2 17% 39909 6430 50%
c p  1.19  0 103 10 1771 15 15692 3812 2.4 26 11 1 2 17% 39909 6425 50%
c c  1.20  0 103 10 1771 15 15692 3812 2.4 26 11 1 2 17% 39865 6425 50%
c d  1.20  0 103 10 1771 15 15692 3795 2.4 26 11 1 2 17% 39853 6419 50%
c u  1.21  0 103 10 1771 15 15692 3175 2.4 26 11 1 2 17% 39849 6419 50%
c v  1.21  0 103 10 1771 15 15692 3158 2.4 26 11 1 2 17% 39849 6419 50%
c w  1.22  0 103 10 1771 15 15692 3033 2.4 26 11 1 2 17% 39849 6419 50%
c x  1.23  0 103 10 1771 15 15692 3033 2.4 26 11 1 2 17% 39832 6419 50%
c f  1.25  0 103 10 1771 15 15692 3005 2.4 26 11 1 2 17% 39739 6477 51%
c }  1.49  0 103 10 1951 14 16411 3722 2.5 38 15 1 2 24% 39739 6477 51%
c [  1.49  0 104 10 1951  2 16411 3722 2.7 164 60 1 2 56% 39739 6477 51%
c -  1.56  0 106 11 1952  1 16869 1922 2.6 155 59 1 2 53% 39739 6477 51%
c ]  1.81  0 104 11 1952  1 18056 2992 2.5 149 60 1 2 51% 39739 6477 51%
c {  1.81  0 103 11 1952 14 18056 2992 2.5 38 15 1 2 24% 39739 6477 51%
c p  1.98  0 104 11 2098 14 18632 4177 2.5 46 18 1 2 27% 39739 6475 51%
c c  1.99  0 104 11 2098 14 18632 4177 2.5 46 18 1 2 27% 39721 6475 51%
c =  2.04  0 104 11 2098 14 18632 4175 2.5 46 18 1 2 27% 39717 6471 50%
c 
c  seconds   reductions   conflicts       size   tier2      variables
c         MB      restarts     redundant     glue   trail        remaining
c           level       rate        size/glue  tier1  irredundant
c 
c u  2.05  0 104 11 2098 14 18632 4060 2.5 46 18 1 2 27% 39717 6471 50%
c v  2.05  0 104 11 2098 14 18632 4008 2.5 46 18 1 2 27% 39717 6471 50%
c w  2.07  0 104 11 2098 14 18632 4004 2.5 46 18 1 2 27% 39717 6471 50%
c t  2.07  0 104 11 2098 14 18632 4003 2.5 46 18 1 2 27% 39717 6471 50%
c 2  2.07  0 104 11 2098 14 18632 4002 2.5 46 18 1 2 27% 39717 6471 50%
c f  2.08  0 104 11 2098 14 18632 3956 2.5 46 18 1 2 27% 39733 6486 51%
c }  2.26  0 103 11 2357 14 19761 4976 2.5 51 20 1 2 29% 39733 6486 51%
c [  2.26  0 104 11 2357  1 19761 4976 2.5 149 60 1 2 51% 39733 6486 51%
c -  2.35  0 102 12 2357  1 20117 2452 2.5 151 59 1 2 52% 39733 6486 51%
c I  2.54  0 99 12 2358  1 21011 3268 2.7 155 58 1 2 52% 39733 6486 51%
c p  2.68  0 99 12 2359  1 21643 4336 2.6 153 58 1 2 52% 39733 6485 51%
c c  2.69  0 99 12 2359  1 21643 4336 2.6 153 58 1 2 52% 39727 6485 51%
c =  2.72  0 99 12 2359  1 21643 4326 2.6 153 58 1 2 52% 39723 6473 51%
c u  2.73  0 99 12 2359  1 21643 4196 2.6 153 58 1 2 52% 39723 6473 51%
c v  2.74  0 99 12 2359  1 21643 4073 2.6 153 58 1 2 52% 39723 6473 51%
c w  2.74  0 99 12 2359  1 21643 3994 2.6 153 58 1 2 52% 39723 6473 51%
c x  2.74  0 99 12 2359  1 21643 3994 2.6 153 58 1 2 52% 39720 6473 51%
c t  2.74  0 99 12 2359  1 21643 3993 2.6 153 58 1 2 52% 39718 6473 51%
c f  2.75  0 99 12 2359  1 21643 3991 2.6 153 58 1 2 52% 39714 6476 51%
c ]  2.77  0 100 12 2359  1 21722 4065 2.6 154 58 1 2 52% 39714 6476 51%
c 
c  seconds   reductions   conflicts       size   tier2      variables
c         MB      restarts     redundant     glue   trail        remaining
c           level       rate        size/glue  tier1  irredundant
c 
c {  2.77  0 103 12 2359 14 21722 4065 2.5 51 20 1 2 29% 39714 6476 51%
c -  2.94  0 101 13 2594 14 23662 2947 2.5 54 21 1 2 29% 39714 6476 51%
c p  3.08  0 101 13 2780 14 24719 4370 2.5 56 22 1 2 29% 39714 6476 51%
c u  3.12  0 101 13 2780 14 24719 4152 2.5 56 22 1 2 29% 39707 6476 51%
c v  3.12  0 101 13 2780 14 24719 3944 2.5 56 22 1 2 29% 39707 6476 51%
c w  3.12  0 101 13 2780 14 24719 3943 2.5 56 22 1 2 29% 39707 6476 51%
c }  3.31  0 100 13 2989 13 26235 5366 2.5 60 23 1 2 30% 39707 6476 51%
c [  3.31  0 100 13 2989  1 26235 5366 2.6 154 58 1 2 52% 39707 6476 51%
c -  3.64  0 98 14 2990  1 27507 3436 2.8 163 58 1 2 54% 39707 6476 51%
c p  3.74  0 97 14 2990  1 27859 4205 2.8 166 58 1 2 54% 39707 6476 51%
c u  3.75  0 97 14 2990  1 27859 4040 2.8 166 58 1 2 54% 39707 6476 51%
c v  3.75  0 97 14 2990  1 27859 3857 2.8 166 58 1 2 54% 39707 6476 51%
c w  3.76  0 97 14 2990  1 27859 3853 2.8 166 58 1 2 54% 39707 6476 51%
c B  3.80  0 97 14 2990  1 28012 3997 2.8 166 59 1 2 54% 39707 6476 51%
c ]  3.89  0 98 14 2990  1 28512 4461 2.8 163 58 1 2 54% 39707 6476 51%
c {  3.89  0 100 14 2990 13 28512 4461 2.5 60 23 1 2 30% 39707 6476 51%
c s  4.02  0 100 14 3190 13 30345 6134 2.6 61 24 1 2 29% 39572 6476 51%
c t  4.02  0 100 14 3190 13 30345 6134 2.6 61 24 1 2 29% 39571 6476 51%
c e  4.02  0 100 14 3190 13 30345 5620 2.6 61 24 1 2 29% 39582 6440 50%
c s  4.02  0 100 14 3190 13 30345 5607 2.6 61 24 1 2 29% 39538 6440 50%
c 
c  seconds   reductions   conflicts       size   tier2      variables
c         MB      restarts     redundant     glue   trail        remaining
c           level       rate        size/glue  tier1  irredundant
c 
c e  4.03  0 100 14 3190 13 30345 5547 2.6 61 24 1 2 29% 39537 6438 50%
c -  4.13  0 101 15 3321 13 31653 3736 2.5 61 24 1 2 29% 39537 6438 50%
c 2  4.13  0 101 15 3321 13 31653 3727 2.5 61 24 1 2 29% 39537 6438 50%
c p  4.13  0 101 15 3321 13 31653 4140 2.5 61 24 1 2 29% 39537 6438 50%
c c  4.14  0 101 15 3321 13 31653 4140 2.5 61 24 1 2 29% 39526 6438 50%
c u  4.17  0 101 15 3321 13 31653 3903 2.5 61 24 1 2 29% 39524 6437 50%
c v  4.17  0 101 15 3321 13 31653 3713 2.5 61 24 1 2 29% 39524 6437 50%
c x  4.17  0 101 15 3321 13 31653 3713 2.5 61 24 1 2 29% 39479 6437 50%
c t  4.18  0 101 15 3321 13 31653 3713 2.5 61 24 1 2 29% 39456 6437 50%
c f  4.18  0 101 15 3321 13 31653 3712 2.5 61 24 1 2 29% 39424 6449 50%
c }  4.54  0 100 15 3717 13 33540 5504 2.5 67 27 1 2 31% 39424 6449 50%
c [  4.54  0 98 15 3717  1 33540 5504 2.8 163 58 1 2 54% 39424 6449 50%
c ]  5.26  0 99 15 3718  1 35949 7822 2.7 169 63 1 2 56% 39424 6449 50%
c {  5.26  0 100 15 3718 13 35949 7822 2.5 67 27 1 2 31% 39424 6449 50%
c F  5.27  0 100 15 3735 13 36013 7882 2.5 67 27 1 2 31% 39424 6449 50%
c -  5.30  0 100 16 3757 13 36101 4180 2.5 68 27 1 2 31% 39424 6449 50%
c p  5.31  0 100 16 3757 13 36101 4582 2.5 68 27 1 2 31% 39424 6449 50%
c u  5.32  0 100 16 3757 13 36101 4361 2.5 68 27 1 2 31% 39423 6449 50%
c v  5.32  0 100 16 3757 13 36101 4183 2.5 68 27 1 2 31% 39423 6449 50%
c w  5.32  0 100 16 3757 13 36101 4128 2.5 68 27 1 2 31% 39423 6449 50%
c 
c  seconds   reductions   conflicts       size   tier2      variables
c         MB      restarts     redundant     glue   trail        remaining
c           level       rate        size/glue  tier1  irredundant
c 
c }  6.00  0 100 16 4240 12 38033 6049 2.6 80 31 1 2 36% 39423 6449 50%
c [  6.00  0 99 16 4240  1 38033 6049 2.7 169 63 1 2 56% 39423 6449 50%
c ]  6.91  0 99 16 4240  1 40374 8319 2.7 176 64 1 2 59% 39423 6449 50%
c {  6.91  0 100 16 4240 12 40374 8319 2.6 80 31 1 2 36% 39423 6449 50%
c -  6.97  0 100 17 4335 12 40851 4208 2.6 80 31 1 2 36% 39423 6449 50%
c p  6.98  0 100 17 4335 12 40851 4602 2.6 80 31 1 2 36% 39423 6449 50%
c u  6.98  0 100 17 4335 12 40851 4522 2.6 80 31 1 2 36% 39423 6449 50%
c v  6.98  0 100 17 4335 12 40851 4397 2.6 80 31 1 2 36% 39423 6449 50%
c w  7.00  0 100 17 4335 12 40851 4325 2.6 80 31 1 2 36% 39423 6449 50%
c x  7.00  0 100 17 4335 12 40851 4325 2.6 80 31 1 2 36% 39361 6449 50%
c B  7.70  0 102 17 4881 11 45014 8236 2.6 87 34 1 2 38% 39361 6449 50%
c -  7.80  0 102 18 4965 11 45903 4665 2.6 87 34 1 2 38% 39361 6449 50%
c p  7.81  0 102 18 4965 11 45903 5042 2.6 87 34 1 2 38% 39361 6449 50%
c =  7.87  0 102 18 4965 11 45903 4972 2.6 87 34 1 2 38% 39353 6143 48%
c u  7.87  0 102 18 4965 11 45903 4551 2.6 87 34 1 2 38% 39311 6143 48%
c v  7.88  0 102 18 4965 11 45903 4342 2.6 87 34 1 2 38% 39311 6143 48%
c w  7.88  0 102 18 4965 11 45903 4321 2.6 87 34 1 2 38% 39311 6143 48%
c x  7.88  0 102 18 4965 11 45903 4320 2.6 87 34 1 2 38% 39145 6143 48%
c 2  7.88  0 102 18 4965 11 45903 4317 2.6 87 34 1 2 38% 39125 6143 48%
c f  7.89  0 102 18 4965 11 45903 4317 2.6 87 34 1 2 38% 39099 6156 48%
c 
c  seconds   reductions   conflicts       size   tier2      variables
c         MB      restarts     redundant     glue   trail        remaining
c           level       rate        size/glue  tier1  irredundant
c 
c }  7.91  0 102 18 4982 11 45998 4408 2.6 87 34 1 2 38% 39099 6156 48%
c [  7.91  0 99 18 4982  1 45998 4408 2.7 176 64 1 2 67% 39099 6156 48%
c ]  8.92  0 106 18 4985  1 49916 8076 2.5 178 71 1 2 67% 39099 6156 48%
c {  8.92  0 102 18 4985 11 49916 8076 2.6 87 34 1 2 38% 39099 6156 48%
c }  8.93  0 102 18 4990 11 50002 8155 2.6 87 34 1 2 35% 39099 6156 48%
c ?  8.93  0 102 18 4990 11 50002 8155 2.6 87 34 1 2 35% 39099 6156 48%
c 
c --- [ result ] -------------------------------------------------------------
c 
c UNKNOWN
c 
c --- [ run-time profiling ] -------------------------------------------------
c 
c process time taken by individual solving procedures
c (percentage relative to process time for solving)
c 
c         8.17   91.55% search
c         4.44   49.77% stable
c         3.71   41.54% unstable
c         0.75    8.42% simplify
c         0.20    2.20% sweep
c         0.16    1.78% vivify
c         0.15    1.63% congruence
c         0.09    1.05% factor
c         0.06    0.66% preprocess
c         0.04    0.48% elim
c         0.02    0.23% subsume
c         0.02    0.18% walk
c         0.02    0.17% fastelim
c         0.01    0.14% probe
c         0.01    0.13% ternary
c         0.01    0.09% parse
c         0.01    0.06% backbone
c         0.00    0.05% lucky
c   =================================
c         8.92   99.91% solve
c 
c last line shows process time for solving
c (percentage relative to total process time)
c 
c --- [ statistics ] ---------------------------------------------------------
c 
c chronological:             11784        23.57 %  of conflicts
c conflicts:                 50002      5604.95    per second
c backbone:                 349141      2689.01 %  of vars
c decisions:                384742     43127.50    per second
c eliminated:                 4021        30.97 %  of all variables
c factored:                    168         2.73 %  of variables
c fixed:                       641         4.94 %  of all variables
c learned:                   46602        93.20 %  per conflict
c learned_lits:           11451180       100.00 %  learned literals
c minimized:                     0         0.00 %  learned literals
c shrunken:                1324685        11.57 %  learned literals
c minishrunken:            4725752        41.27 %  learned literals
c otfs:                       2551         5.10 %  of conflict
c propagations:           84090852         9.43 M  per second
c reduced:                   28806        57.61 %  per conflict
c rephased:                      9      5555.78    interval
c restarts:                   4990        10.02    interval
c stabilizing:                  11        32.71 %  of conflicts
c substituted:                2166        16.68 %  of all variables
c sweep equivs:                366         8.69 %  of swept variables
c subsumed:                  11504         7.86 %  of all clauses
c strengthened:               6268         4.28 %  of all clauses
c ticks:                 542749789         6.58    propagation
c vivified:                   3168         2.16 %  of all clauses
c walked:                        1     50002.00    interval
c weakened:                  30613         2.83    average size
c congruence:                   13      3846.31    interval
c 
c seconds are measured in process time for solving
c 
c --- [ glue usage ] ---------------------------------------------------------
c 
c focused glue 1 used 569221 clauses 84.31% accumulated 84.31% tier1
c focused glue 2 used 58817 clauses 8.711% accumulated 93.02% tier2
c 
c stable glue 1 used 477392 clauses 82.21% accumulated 82.21% tier1
c stable glue 2 used 42825 clauses 7.375% accumulated 89.58% tier2
c 
c 
c --- [ resources ] ----------------------------------------------------------
c 
c total process time since initialization:         8.93    seconds
c total real time since initialization:            8.99    seconds
c maximum resident set size of process:        53232.00    MB
c 
c --- [ shutting down ] ------------------------------------------------------
c 
c exit 0
